
   7    4
  10   10   10   10

   0   0   0   0   0   2 2 3 
   7  10  10  10  10   2 5 4 
   5  10  10  10  10   1 4 
   1  10  10  10  10   1 6 
   3  10  10  10  10   1 6 
   3  10  10  10  10   1 7
   0   0   0   0   0   0 
